50
1 4
1 7
1 10
1 11
1 19
1 20
1 22
1 35
1 37
1 38
1 41
1 42
1 44
1 47
1 50
2 7
2 8
2 9
2 12
2 15
2 18
2 31
2 34
2 37
2 46
3 7
3 11
3 19
3 22
3 26
3 29
3 33
3 39
3 43
3 50
4 17
4 18
4 29
4 39
4 40
4 44
4 46
5 6
5 23
5 41
5 42
5 43
5 46
5 47
5 48
6 7
6 14
6 25
6 28
6 40
6 42
6 46
6 49
7 8
7 10
7 16
7 17
7 23
7 26
7 29
7 34
7 35
7 37
7 41
7 42
7 44
7 48
7 49
8 11
8 15
8 17
8 20
8 32
8 34
8 40
8 41
8 50
9 14
9 29
9 39
9 44
9 45
9 47
9 49
10 15
10 29
10 30
10 40
10 47
11 13
11 19
11 23
11 28
11 29
11 34
11 38
11 39
11 44
11 46
11 48
12 30
12 49
13 18
13 21
13 27
13 30
13 33
13 34
13 39
13 41
13 42
14 18
14 20
14 25
14 27
14 28
14 37
14 41
15 17
15 26
15 32
15 37
15 42
15 46
15 47
15 49
16 17
16 21
16 26
16 28
16 29
16 37
16 50
17 21
17 22
17 23
17 24
17 25
17 32
17 40
17 41
17 42
17 44
17 46
17 50
18 19
18 27
18 32
18 34
18 38
18 41
18 42
18 43
18 48
19 28
19 35
19 38
19 39
19 44
19 45
19 49
20 22
20 24
20 29
20 43
20 44
20 50
21 23
21 26
21 28
21 29
21 50
22 25
22 32
22 38
22 40
23 26
23 27
23 32
23 36
23 41
23 46
24 35
24 39
24 40
24 42
24 46
24 50
25 29
25 45
25 47
26 30
26 33
26 35
26 36
26 43
26 48
26 49
27 33
27 41
27 47
27 48
27 49
27 50
28 31
28 32
28 33
28 34
29 38
29 44
29 49
30 41
30 43
31 36
31 37
31 49
32 36
32 42
32 46
32 49
32 50
33 36
33 48
33 50
34 35
34 40
34 42
34 47
35 40
35 45
35 48
35 49
36 37
36 42
36 48
36 50
37 39
37 43
38 40
38 46
38 47
39 44
39 48
40 43
41 44
41 46
42 44
42 48
43 45
44 49
44 50
46 47
47 48
47 50
48 50
